NAME
* Written by MOSEK version 7.0.0.94
OBJSENSE
    MIN
ROWS
 N  OBJ
 E  C1      
 E  C2      
 E  C3      
COLUMNS
    X1        OBJ       8e+0
    X1        C1        1e+0
    X1        C2        1e+0
    X1        C3        2e+0
    X2        OBJ       1e+0
    X2        C1        -1e+0
    X2        C3        1e+0
    X3        OBJ       1e+0
    X3        C1        2e+0
    X3        C2        2e+0
    X3        C3        -1e+0
    X4        OBJ       1e+0
    X4        C2        -1e+0
    X5        OBJ       1e+0
    X5        C1        1e+0
    X5        C2        -1e+0
    X5        C3        3e+0
    X6        OBJ       1e+0
    X6        C2        1e+0
    X6        C3        1e+0
    X7        OBJ       1e+0
    X7        C2        1e+0
    X7        C3        -1e+0
RHS
    rhs       C1        3e+0
    rhs       C2        5e+0
    rhs       C3        7e+0
RANGES
BOUNDS
 LI bound     X2        0
 LI bound     X3        0
 LI bound     X5        0
 LI bound     X6        0
CSECTION      K1        0              QUAD
    X1      
    X2      
    X3      
CSECTION      K2        0              QUAD
    X4      
    X5      
    X6      
ENDATA
